c Created with the Wolfram Language : www.wolfram.com
c 
p edge 90 400
e 2 6
e 1 11
e 5 11
e 7 11
e 2 12
e 9 12
e 10 14
e 4 15
e 10 15
e 4 18
e 18 19
e 19 20
e 9 21
e 10 21
e 20 21
e 9 22
e 11 22
e 2 23
e 6 23
e 7 23
e 13 23
e 18 23
e 5 24
e 3 25
e 24 25
e 11 26
e 22 26
e 24 27
e 1 28
e 4 28
e 11 28
e 12 28
e 26 28
e 6 29
e 13 29
e 18 29
e 22 29
e 29 30
e 6 31
e 10 31
e 15 31
e 23 31
e 28 31
e 10 32
e 11 32
e 8 33
e 8 34
e 16 34
e 22 34
e 25 34
e 2 35
e 15 35
e 18 35
e 34 35
e 1 36
e 5 37
e 6 37
e 8 37
e 17 37
e 22 37
e 23 37
e 17 38
e 21 38
e 18 39
e 19 39
e 20 39
e 27 39
e 31 39
e 34 39
e 35 39
e 9 40
e 22 40
e 29 40
e 34 40
e 37 40
e 2 41
e 3 41
e 7 41
e 4 42
e 7 42
e 32 42
e 17 43
e 22 43
e 26 43
e 30 43
e 31 43
e 36 43
e 3 44
e 6 44
e 13 44
e 17 44
e 41 44
e 3 45
e 19 45
e 32 45
e 33 45
e 7 46
e 20 46
e 22 46
e 34 46
e 12 47
e 34 47
e 42 47
e 5 48
e 14 48
e 32 48
e 5 49
e 15 49
e 21 49
e 36 49
e 5 50
e 49 50
e 7 51
e 21 51
e 42 51
e 9 52
e 16 52
e 20 52
e 28 52
e 6 53
e 12 53
e 26 53
e 35 53
e 41 53
e 12 54
e 17 54
e 18 54
e 27 54
e 30 54
e 32 54
e 39 54
e 43 54
e 44 54
e 48 54
e 50 54
e 12 55
e 13 55
e 22 55
e 30 55
e 34 55
e 36 55
e 42 55
e 45 55
e 17 56
e 35 56
e 27 57
e 4 58
e 12 58
e 14 58
e 32 58
e 37 58
e 2 59
e 9 59
e 15 59
e 18 59
e 22 59
e 23 59
e 31 59
e 33 59
e 35 59
e 41 59
e 48 59
e 51 59
e 9 60
e 13 60
e 2 61
e 5 61
e 7 61
e 11 61
e 24 61
e 32 61
e 33 61
e 43 61
e 45 61
e 46 61
e 2 62
e 4 62
e 5 62
e 6 62
e 31 62
e 37 62
e 40 62
e 54 62
e 20 63
e 45 63
e 15 64
e 23 64
e 24 64
e 30 64
e 37 64
e 54 64
e 2 65
e 13 65
e 48 65
e 54 65
e 58 65
e 4 66
e 11 66
e 25 66
e 26 66
e 27 66
e 29 66
e 32 66
e 35 66
e 36 66
e 43 66
e 52 66
e 4 67
e 9 67
e 11 67
e 28 67
e 32 67
e 52 67
e 60 67
e 63 67
e 17 68
e 59 68
e 65 68
e 2 69
e 11 69
e 12 69
e 28 69
e 30 69
e 33 69
e 35 69
e 36 69
e 44 69
e 47 69
e 57 69
e 9 70
e 12 70
e 42 70
e 44 70
e 47 70
e 55 70
e 1 71
e 7 71
e 17 71
e 32 71
e 50 71
e 55 71
e 59 71
e 18 72
e 24 72
e 26 72
e 32 72
e 49 72
e 57 72
e 69 72
e 17 73
e 33 73
e 40 73
e 46 73
e 59 73
e 64 73
e 25 74
e 50 74
e 62 74
e 73 74
e 7 75
e 15 75
e 27 75
e 57 75
e 12 76
e 22 76
e 25 76
e 35 76
e 37 76
e 55 76
e 69 76
e 7 77
e 18 77
e 23 77
e 48 77
e 75 77
e 3 78
e 10 78
e 17 78
e 30 78
e 32 78
e 34 78
e 36 78
e 59 78
e 63 78
e 69 78
e 70 78
e 31 79
e 41 79
e 54 79
e 63 79
e 65 79
e 78 79
e 5 80
e 17 80
e 22 80
e 25 80
e 26 80
e 27 80
e 32 80
e 43 80
e 63 80
e 70 80
e 30 81
e 37 81
e 39 81
e 45 81
e 58 81
e 63 81
e 74 81
e 38 82
e 39 82
e 54 82
e 77 82
e 79 82
e 3 83
e 17 83
e 19 83
e 37 83
e 49 83
e 60 83
e 65 83
e 69 83
e 73 83
e 6 84
e 12 84
e 26 84
e 27 84
e 31 84
e 32 84
e 37 84
e 44 84
e 52 84
e 57 84
e 64 84
e 71 84
e 75 84
e 82 84
e 7 85
e 32 85
e 58 85
e 59 85
e 63 85
e 70 85
e 72 85
e 82 85
e 4 86
e 28 86
e 32 86
e 38 86
e 41 86
e 42 86
e 43 86
e 52 86
e 58 86
e 66 86
e 69 86
e 16 87
e 23 87
e 24 87
e 25 87
e 34 87
e 53 87
e 58 87
e 61 87
e 72 87
e 83 87
e 84 87
e 4 88
e 12 88
e 24 88
e 35 88
e 40 88
e 44 88
e 74 88
e 83 88
e 4 89
e 16 89
e 18 89
e 36 89
e 41 89
e 48 89
e 63 89
e 67 89
e 75 89
e 83 89
e 84 89
e 86 89
e 87 89
e 17 90
e 20 90
e 29 90
e 30 90
e 34 90
e 41 90
e 43 90
e 46 90
e 65 90
e 78 90
e 86 90
e 89 90
